Cost: 355
0-27-15-37-36-47-48-29-45-4-0
0-34-8-35-14-11-38-7-26-0
0-6-3-32-25-9-39-40-12-0
0-17-33-23-43-41-42-22-28-30-0
Cost: 355
0-33-16-23-43-41-42-22-28-30-0
0-26-7-38-11-14-35-8-34-0
0-4-45-29-48-47-36-37-15-27-0
0-12-40-39-9-25-32-3-6-0
Cost: 355
0-27-15-37-36-47-48-29-45-4-0
0-34-8-35-14-11-38-7-26-0
0-6-3-32-25-9-39-40-12-0
0-17-33-23-43-41-42-22-28-30-0
Cost: 355
0-17-33-23-43-41-42-22-28-30-0
0-12-40-39-9-25-32-3-6-0
0-34-8-35-14-11-38-7-26-0
0-27-15-37-36-47-48-29-45-4-0
Cost: 355
0-33-16-23-43-41-42-22-28-30-0
0-6-3-32-25-9-39-40-12-0
0-34-8-35-14-11-38-7-26-0
0-4-45-29-48-47-36-37-15-27-0
Cost: 355
0-4-45-29-48-47-36-37-15-27-0
0-33-16-23-43-41-42-22-28-30-0
0-26-7-38-11-14-35-8-34-0
0-12-40-39-9-25-32-3-6-0
Cost: 355
0-30-28-22-42-41-43-23-16-33-0
0-4-45-29-48-47-36-37-15-27-0
0-26-7-38-11-14-35-8-34-0
0-6-3-32-25-9-39-40-12-0
Cost: 355
0-27-15-37-36-47-48-29-45-4-0
0-6-3-32-25-9-39-40-12-0
0-30-28-22-42-41-43-23-33-17-0
0-26-7-38-11-14-35-8-34-0
Cost: 355
0-12-40-39-9-25-32-3-6-0
0-30-28-22-42-41-43-23-16-33-0
0-27-15-37-36-47-48-29-45-4-0
0-26-7-38-11-14-35-8-34-0
Cost: 355
0-26-7-38-11-14-35-8-34-0
0-12-40-39-9-25-32-3-6-0
0-30-28-22-42-41-43-23-16-33-0
0-4-45-29-48-47-36-37-15-27-0
Cost: 355
0-17-33-23-43-41-42-22-28-30-0
0-12-40-39-9-25-32-3-6-0
0-34-8-35-14-11-38-7-26-0
0-4-45-29-48-47-36-37-15-27-0
Cost: 355
0-30-28-22-42-41-43-23-33-17-0
0-27-15-37-36-47-48-29-45-4-0
0-26-7-38-11-14-35-8-34-0
0-12-40-39-9-25-32-3-6-0
Cost: 355
0-30-28-22-42-41-43-23-16-33-0
0-4-45-29-48-47-36-37-15-27-0
0-6-3-32-25-9-39-40-12-0
0-26-7-38-11-14-35-8-34-0
Cost: 355
0-6-3-32-25-9-39-40-12-0
0-34-8-35-14-11-38-7-26-0
0-33-16-23-43-41-42-22-28-30-0
0-27-15-37-36-47-48-29-45-4-0
Cost: 355
0-34-8-35-14-11-38-7-26-0
0-33-16-23-43-41-42-22-28-30-0
0-4-45-29-48-47-36-37-15-27-0
0-12-40-39-9-25-32-3-6-0
Cost: 355
0-4-45-29-48-47-36-37-15-27-0
0-34-8-35-14-11-38-7-26-0
0-30-28-22-42-41-43-23-16-33-0
0-6-3-32-25-9-39-40-12-0
Cost: 355
0-30-28-22-42-41-43-23-16-33-0
0-6-3-32-25-9-39-40-12-0
0-27-15-37-36-47-48-29-45-4-0
0-26-7-38-11-14-35-8-34-0
Cost: 355
0-34-8-35-14-11-38-7-26-0
0-12-40-39-9-25-32-3-6-0
0-27-15-37-36-47-48-29-45-4-0
0-30-28-22-42-41-43-23-16-33-0
Cost: 355
0-34-8-35-14-11-38-7-26-0
0-27-15-37-36-47-48-29-45-4-0
0-30-28-22-42-41-43-23-16-33-0
0-6-3-32-25-9-39-40-12-0
Cost: 355
0-34-8-35-14-11-38-7-26-0
0-27-15-37-36-47-48-29-45-4-0
0-30-28-22-42-41-43-23-16-33-0
0-6-3-32-25-9-39-40-12-0
Cost: 355
0-12-40-39-9-25-32-3-6-0
0-4-45-29-48-47-36-37-15-27-0
0-33-16-23-43-41-42-22-28-30-0
0-34-8-35-14-11-38-7-26-0
Cost: 355
0-12-40-39-9-25-32-3-6-0
0-4-45-29-48-47-36-37-15-27-0
0-33-16-23-43-41-42-22-28-30-0
0-34-8-35-14-11-38-7-26-0
Cost: 355
0-30-28-22-42-41-43-23-16-33-0
0-6-3-32-25-9-39-40-12-0
0-26-7-38-11-14-35-8-34-0
0-27-15-37-36-47-48-29-45-4-0
Cost: 355
0-12-40-39-9-25-32-3-6-0
0-4-45-29-48-47-36-37-15-27-0
0-33-16-23-43-41-42-22-28-30-0
0-34-8-35-14-11-38-7-26-0
Cost: 355
0-34-8-35-14-11-38-7-26-0
0-12-40-39-9-25-32-3-6-0
0-27-15-37-36-47-48-29-45-4-0
0-30-28-22-42-41-43-23-16-33-0
Cost: 355
0-34-8-35-14-11-38-7-26-0
0-27-15-37-36-47-48-29-45-4-0
0-30-28-22-42-41-43-23-16-33-0
0-6-3-32-25-9-39-40-12-0
Cost: 355
0-27-15-37-36-47-48-29-45-4-0
0-6-3-32-25-9-39-40-12-0
0-26-7-38-11-14-35-8-34-0
0-30-28-22-42-41-43-23-33-17-0
Cost: 0
Cost: 0
Cost: 355
0-4-45-29-48-47-36-37-15-27-0
0-12-40-39-9-25-32-3-6-0
0-26-7-38-11-14-35-8-34-0
0-30-28-22-42-41-43-23-33-17-0
Cost: 355
0-26-7-38-11-14-35-8-34-0
0-4-45-29-48-47-36-37-15-27-0
0-33-16-23-43-41-42-22-28-30-0
0-6-3-32-25-9-39-40-12-0
